313.0 368.0 299.0 239.0 250.0 
313.0 368.0 299.0 250.0 239.0 
313.0 368.0 239.0 299.0 250.0 
313.0 368.0 239.0 250.0 299.0 
313.0 368.0 250.0 239.0 299.0 
313.0 368.0 250.0 299.0 239.0 
313.0 299.0 368.0 239.0 250.0 
313.0 299.0 368.0 250.0 239.0 
313.0 299.0 239.0 368.0 250.0 
313.0 299.0 239.0 250.0 368.0 
313.0 299.0 250.0 239.0 368.0 
313.0 299.0 250.0 368.0 239.0 
313.0 239.0 299.0 368.0 250.0 
313.0 239.0 299.0 250.0 368.0 
313.0 239.0 368.0 299.0 250.0 
313.0 239.0 368.0 250.0 299.0 
313.0 239.0 250.0 368.0 299.0 
313.0 239.0 250.0 299.0 368.0 
313.0 250.0 299.0 239.0 368.0 
313.0 250.0 299.0 368.0 239.0 
313.0 250.0 239.0 299.0 368.0 
313.0 250.0 239.0 368.0 299.0 
313.0 250.0 368.0 239.0 299.0 
313.0 250.0 368.0 299.0 239.0 
368.0 313.0 299.0 239.0 250.0 
368.0 313.0 299.0 250.0 239.0 
368.0 313.0 239.0 299.0 250.0 
368.0 313.0 239.0 250.0 299.0 
368.0 313.0 250.0 239.0 299.0 
368.0 313.0 250.0 299.0 239.0 
368.0 299.0 313.0 239.0 250.0 
368.0 299.0 313.0 250.0 239.0 
368.0 299.0 239.0 313.0 250.0 
368.0 299.0 239.0 250.0 313.0 
368.0 299.0 250.0 239.0 313.0 
368.0 299.0 250.0 313.0 239.0 
368.0 239.0 299.0 313.0 250.0 
368.0 239.0 299.0 250.0 313.0 
368.0 239.0 313.0 299.0 250.0 
368.0 239.0 313.0 250.0 299.0 
368.0 239.0 250.0 313.0 299.0 
368.0 239.0 250.0 299.0 313.0 
368.0 250.0 299.0 239.0 313.0 
368.0 250.0 299.0 313.0 239.0 
368.0 250.0 239.0 299.0 313.0 
368.0 250.0 239.0 313.0 299.0 
368.0 250.0 313.0 239.0 299.0 
368.0 250.0 313.0 299.0 239.0 
299.0 368.0 313.0 239.0 250.0 
299.0 368.0 313.0 250.0 239.0 
299.0 368.0 239.0 313.0 250.0 
299.0 368.0 239.0 250.0 313.0 
299.0 368.0 250.0 239.0 313.0 
299.0 368.0 250.0 313.0 239.0 
299.0 313.0 368.0 239.0 250.0 
299.0 313.0 368.0 250.0 239.0 
299.0 313.0 239.0 368.0 250.0 
299.0 313.0 239.0 250.0 368.0 
299.0 313.0 250.0 239.0 368.0 
299.0 313.0 250.0 368.0 239.0 
299.0 239.0 313.0 368.0 250.0 
299.0 239.0 313.0 250.0 368.0 
299.0 239.0 368.0 313.0 250.0 
299.0 239.0 368.0 250.0 313.0 
299.0 239.0 250.0 368.0 313.0 
299.0 239.0 250.0 313.0 368.0 
299.0 250.0 313.0 239.0 368.0 
299.0 250.0 313.0 368.0 239.0 
299.0 250.0 239.0 313.0 368.0 
299.0 250.0 239.0 368.0 313.0 
299.0 250.0 368.0 239.0 313.0 
299.0 250.0 368.0 313.0 239.0 
239.0 368.0 299.0 313.0 250.0 
239.0 368.0 299.0 250.0 313.0 
239.0 368.0 313.0 299.0 250.0 
239.0 368.0 313.0 250.0 299.0 
239.0 368.0 250.0 313.0 299.0 
239.0 368.0 250.0 299.0 313.0 
239.0 299.0 368.0 313.0 250.0 
239.0 299.0 368.0 250.0 313.0 
239.0 299.0 313.0 368.0 250.0 
239.0 299.0 313.0 250.0 368.0 
239.0 299.0 250.0 313.0 368.0 
239.0 299.0 250.0 368.0 313.0 
239.0 313.0 299.0 368.0 250.0 
239.0 313.0 299.0 250.0 368.0 
239.0 313.0 368.0 299.0 250.0 
239.0 313.0 368.0 250.0 299.0 
239.0 313.0 250.0 368.0 299.0 
239.0 313.0 250.0 299.0 368.0 
239.0 250.0 299.0 313.0 368.0 
239.0 250.0 299.0 368.0 313.0 
239.0 250.0 313.0 299.0 368.0 
239.0 250.0 313.0 368.0 299.0 
239.0 250.0 368.0 313.0 299.0 
239.0 250.0 368.0 299.0 313.0 
250.0 368.0 299.0 239.0 313.0 
250.0 368.0 299.0 313.0 239.0 
250.0 368.0 239.0 299.0 313.0 
250.0 368.0 239.0 313.0 299.0 
250.0 368.0 313.0 239.0 299.0 
250.0 368.0 313.0 299.0 239.0 
250.0 299.0 368.0 239.0 313.0 
250.0 299.0 368.0 313.0 239.0 
250.0 299.0 239.0 368.0 313.0 
250.0 299.0 239.0 313.0 368.0 
250.0 299.0 313.0 239.0 368.0 
250.0 299.0 313.0 368.0 239.0 
250.0 239.0 299.0 368.0 313.0 
250.0 239.0 299.0 313.0 368.0 
250.0 239.0 368.0 299.0 313.0 
250.0 239.0 368.0 313.0 299.0 
250.0 239.0 313.0 368.0 299.0 
250.0 239.0 313.0 299.0 368.0 
250.0 313.0 299.0 239.0 368.0 
250.0 313.0 299.0 368.0 239.0 
250.0 313.0 239.0 299.0 368.0 
250.0 313.0 239.0 368.0 299.0 
250.0 313.0 368.0 239.0 299.0 
250.0 313.0 368.0 299.0 239.0 
